8 10 108
3 8 1 7 1 1 1 6 28 34 54 56 68 
1 5 1 22 40 
2 3 1 2 1 42 60 60 82 
3 6 1 8 2 7 2 8 34 36 54 58 76 
2 6 2 7 3 42 80 82 108 
2 4 1 5 2 30 62 70 106 
3 8 3 4 2 2 2 60 76 76 90 90 108 
3 3 2 6 3 1 2 70 84 84 96 96 108 
16 8 1 5 1 5 1 7 1 7 1 8 2 6 2 1 1 1 1 7 2 8 3 5 2 5 2 4 2 2 2 2 2 0 6 6 14 14 22 22 28 28 34 34 36 36 42 42 50 50 56 56 58 58 60 60 66 66 70 70 76 78 82 82 90 
13 6 1 4 1 4 1 3 1 3 1 2 1 2 1 3 2 7 3 7 3 6 3 1 2 1 2 0 8 8 18 18 30 30 36 36 42 42 54 54 60 60 70 72 76 76 82 82 84 84 90 90 96 
